p cnf 855 2708
8 0
15 0
22 0
29 0
36 0
43 0
16 0
23 0
30 0
37 0
44 0
24 0
31 0
38 0
45 0
32 0
39 0
46 0
40 0
47 0
48 0
-8 -16 15 0
-8 -23 22 0
-8 -30 29 0
-8 -37 36 0
-8 -44 43 0
-15 -10 8 0
-15 -24 22 0
-15 -31 29 0
-15 -38 36 0
-15 -45 43 0
-22 -11 8 0
-22 -18 15 0
-22 -32 29 0
-22 -39 36 0
-22 -46 43 0
-29 -12 8 0
-29 -19 15 0
-29 -26 22 0
-29 -40 36 0
-29 -47 43 0
-36 -13 8 0
-36 -20 15 0
-36 -27 22 0
-36 -34 29 0
-36 -48 43 0
-43 -14 8 0
-43 -21 15 0
-43 -28 22 0
-43 -35 29 0
-43 -42 36 0
-2 -15 16 0
-2 -22 23 0
-2 -29 30 0
-2 -36 37 0
-2 -43 44 0
-16 -3 2 0
-16 -24 23 0
-16 -31 30 0
-16 -38 37 0
-16 -45 44 0
-23 -4 2 0
-23 -18 16 0
-23 -32 30 0
-23 -39 37 0
-23 -46 44 0
-30 -5 2 0
-30 -19 16 0
-30 -26 23 0
-30 -40 37 0
-30 -47 44 0
-37 -6 2 0
-37 -20 16 0
-37 -27 23 0
-37 -34 30 0
-37 -48 44 0
-44 -7 2 0
-44 -21 16 0
-44 -28 23 0
-44 -35 30 0
-44 -42 37 0
-3 -8 10 0
-3 -22 24 0
-3 -29 31 0
-3 -36 38 0
-3 -43 45 0
-10 -2 3 0
-10 -23 24 0
-10 -30 31 0
-10 -37 38 0
-10 -44 45 0
-24 -4 3 0
-24 -11 10 0
-24 -32 31 0
-24 -39 38 0
-24 -46 45 0
-31 -5 3 0
-31 -12 10 0
-31 -26 24 0
-31 -40 38 0
-31 -47 45 0
-38 -6 3 0
-38 -13 10 0
-38 -27 24 0
-38 -34 31 0
-38 -48 45 0
-45 -7 3 0
-45 -14 10 0
-45 -28 24 0
-45 -35 31 0
-45 -42 38 0
-4 -8 11 0
-4 -15 18 0
-4 -29 32 0
-4 -36 39 0
-4 -43 46 0
-11 -2 4 0
-11 -16 18 0
-11 -30 32 0
-11 -37 39 0
-11 -44 46 0
-18 -3 4 0
-18 -10 11 0
-18 -31 32 0
-18 -38 39 0
-18 -45 46 0
-32 -5 4 0
-32 -12 11 0
-32 -19 18 0
-32 -40 39 0
-32 -47 46 0
-39 -6 4 0
-39 -13 11 0
-39 -20 18 0
-39 -34 32 0
-39 -48 46 0
-46 -7 4 0
-46 -14 11 0
-46 -21 18 0
-46 -35 32 0
-46 -42 39 0
-5 -8 12 0
-5 -15 19 0
-5 -22 26 0
-5 -36 40 0
-5 -43 47 0
-12 -2 5 0
-12 -16 19 0
-12 -23 26 0
-12 -37 40 0
-12 -44 47 0
-19 -3 5 0
-19 -10 12 0
-19 -24 26 0
-19 -38 40 0
-19 -45 47 0
-26 -4 5 0
-26 -11 12 0
-26 -18 19 0
-26 -39 40 0
-26 -46 47 0
-40 -6 5 0
-40 -13 12 0
-40 -20 19 0
-40 -27 26 0
-40 -48 47 0
-47 -7 5 0
-47 -14 12 0
-47 -21 19 0
-47 -28 26 0
-47 -42 40 0
-6 -8 13 0
-6 -15 20 0
-6 -22 27 0
-6 -29 34 0
-6 -43 48 0
-13 -2 6 0
-13 -16 20 0
-13 -23 27 0
-13 -30 34 0
-13 -44 48 0
-20 -3 6 0
-20 -10 13 0
-20 -24 27 0
-20 -31 34 0
-20 -45 48 0
-27 -4 6 0
-27 -11 13 0
-27 -18 20 0
-27 -32 34 0
-27 -46 48 0
-34 -5 6 0
-34 -12 13 0
-34 -19 20 0
-34 -26 27 0
-34 -47 48 0
-48 -7 6 0
-48 -14 13 0
-48 -21 20 0
-48 -28 27 0
-48 -35 34 0
-7 -8 14 0
-7 -15 21 0
-7 -22 28 0
-7 -29 35 0
-7 -36 42 0
-14 -2 7 0
-14 -16 21 0
-14 -23 28 0
-14 -30 35 0
-14 -37 42 0
-21 -3 7 0
-21 -10 14 0
-21 -24 28 0
-21 -31 35 0
-21 -38 42 0
-28 -4 7 0
-28 -11 14 0
-28 -18 21 0
-28 -32 35 0
-28 -39 42 0
-35 -5 7 0
-35 -12 14 0
-35 -19 21 0
-35 -26 28 0
-35 -40 42 0
-42 -6 7 0
-42 -13 14 0
-42 -20 21 0
-42 -27 28 0
-42 -34 35 0
-57 -65 64 0
-57 -72 71 0
-57 -79 78 0
-57 -86 85 0
-57 -93 92 0
-64 -59 57 0
-64 -73 71 0
-64 -80 78 0
-64 -87 85 0
-64 -94 92 0
-71 -60 57 0
-71 -67 64 0
-71 -81 78 0
-71 -88 85 0
-71 -95 92 0
-78 -61 57 0
-78 -68 64 0
-78 -75 71 0
-78 -89 85 0
-78 -96 92 0
-85 -62 57 0
-85 -69 64 0
-85 -76 71 0
-85 -83 78 0
-85 -97 92 0
-92 -63 57 0
-92 -70 64 0
-92 -77 71 0
-92 -84 78 0
-92 -91 85 0
-51 -64 65 0
-51 -71 72 0
-51 -78 79 0
-51 -85 86 0
-51 -92 93 0
-65 -52 51 0
-65 -73 72 0
-65 -80 79 0
-65 -87 86 0
-65 -94 93 0
-72 -53 51 0
-72 -67 65 0
-72 -81 79 0
-72 -88 86 0
-72 -95 93 0
-79 -54 51 0
-79 -68 65 0
-79 -75 72 0
-79 -89 86 0
-79 -96 93 0
-86 -55 51 0
-86 -69 65 0
-86 -76 72 0
-86 -83 79 0
-86 -97 93 0
-93 -56 51 0
-93 -70 65 0
-93 -77 72 0
-93 -84 79 0
-93 -91 86 0
-52 -57 59 0
-52 -71 73 0
-52 -78 80 0
-52 -85 87 0
-52 -92 94 0
-59 -51 52 0
-59 -72 73 0
-59 -79 80 0
-59 -86 87 0
-59 -93 94 0
-73 -53 52 0
-73 -60 59 0
-73 -81 80 0
-73 -88 87 0
-73 -95 94 0
-80 -54 52 0
-80 -61 59 0
-80 -75 73 0
-80 -89 87 0
-80 -96 94 0
-87 -55 52 0
-87 -62 59 0
-87 -76 73 0
-87 -83 80 0
-87 -97 94 0
-94 -56 52 0
-94 -63 59 0
-94 -77 73 0
-94 -84 80 0
-94 -91 87 0
-53 -57 60 0
-53 -64 67 0
-53 -78 81 0
-53 -85 88 0
-53 -92 95 0
-60 -51 53 0
-60 -65 67 0
-60 -79 81 0
-60 -86 88 0
-60 -93 95 0
-67 -52 53 0
-67 -59 60 0
-67 -80 81 0
-67 -87 88 0
-67 -94 95 0
-81 -54 53 0
-81 -61 60 0
-81 -68 67 0
-81 -89 88 0
-81 -96 95 0
-88 -55 53 0
-88 -62 60 0
-88 -69 67 0
-88 -83 81 0
-88 -97 95 0
-95 -56 53 0
-95 -63 60 0
-95 -70 67 0
-95 -84 81 0
-95 -91 88 0
-54 -57 61 0
-54 -64 68 0
-54 -71 75 0
-54 -85 89 0
-54 -92 96 0
-61 -51 54 0
-61 -65 68 0
-61 -72 75 0
-61 -86 89 0
-61 -93 96 0
-68 -52 54 0
-68 -59 61 0
-68 -73 75 0
-68 -87 89 0
-68 -94 96 0
-75 -53 54 0
-75 -60 61 0
-75 -67 68 0
-75 -88 89 0
-75 -95 96 0
-89 -55 54 0
-89 -62 61 0
-89 -69 68 0
-89 -76 75 0
-89 -97 96 0
-96 -56 54 0
-96 -63 61 0
-96 -70 68 0
-96 -77 75 0
-96 -91 89 0
-55 -57 62 0
-55 -64 69 0
-55 -71 76 0
-55 -78 83 0
-55 -92 97 0
-62 -51 55 0
-62 -65 69 0
-62 -72 76 0
-62 -79 83 0
-62 -93 97 0
-69 -52 55 0
-69 -59 62 0
-69 -73 76 0
-69 -80 83 0
-69 -94 97 0
-76 -53 55 0
-76 -60 62 0
-76 -67 69 0
-76 -81 83 0
-76 -95 97 0
-83 -54 55 0
-83 -61 62 0
-83 -68 69 0
-83 -75 76 0
-83 -96 97 0
-97 -56 55 0
-97 -63 62 0
-97 -70 69 0
-97 -77 76 0
-97 -84 83 0
-56 -57 63 0
-56 -64 70 0
-56 -71 77 0
-56 -78 84 0
-56 -85 91 0
-63 -51 56 0
-63 -65 70 0
-63 -72 77 0
-63 -79 84 0
-63 -86 91 0
-70 -52 56 0
-70 -59 63 0
-70 -73 77 0
-70 -80 84 0
-70 -87 91 0
-77 -53 56 0
-77 -60 63 0
-77 -67 70 0
-77 -81 84 0
-77 -88 91 0
-84 -54 56 0
-84 -61 63 0
-84 -68 70 0
-84 -75 77 0
-84 -89 91 0
-91 -55 56 0
-91 -62 63 0
-91 -69 70 0
-91 -76 77 0
-91 -83 84 0
-106 -114 113 0
-106 -121 120 0
-106 -128 127 0
-106 -135 134 0
-106 -142 141 0
-113 -108 106 0
-113 -122 120 0
-113 -129 127 0
-113 -136 134 0
-113 -143 141 0
-120 -109 106 0
-120 -116 113 0
-120 -130 127 0
-120 -137 134 0
-120 -144 141 0
-127 -110 106 0
-127 -117 113 0
-127 -124 120 0
-127 -138 134 0
-127 -145 141 0
-134 -111 106 0
-134 -118 113 0
-134 -125 120 0
-134 -132 127 0
-134 -146 141 0
-141 -112 106 0
-141 -119 113 0
-141 -126 120 0
-141 -133 127 0
-141 -140 134 0
-100 -113 114 0
-100 -120 121 0
-100 -127 128 0
-100 -134 135 0
-100 -141 142 0
-114 -101 100 0
-114 -122 121 0
-114 -129 128 0
-114 -136 135 0
-114 -143 142 0
-121 -102 100 0
-121 -116 114 0
-121 -130 128 0
-121 -137 135 0
-121 -144 142 0
-128 -103 100 0
-128 -117 114 0
-128 -124 121 0
-128 -138 135 0
-128 -145 142 0
-135 -104 100 0
-135 -118 114 0
-135 -125 121 0
-135 -132 128 0
-135 -146 142 0
-142 -105 100 0
-142 -119 114 0
-142 -126 121 0
-142 -133 128 0
-142 -140 135 0
-101 -106 108 0
-101 -120 122 0
-101 -127 129 0
-101 -134 136 0
-101 -141 143 0
-108 -100 101 0
-108 -121 122 0
-108 -128 129 0
-108 -135 136 0
-108 -142 143 0
-122 -102 101 0
-122 -109 108 0
-122 -130 129 0
-122 -137 136 0
-122 -144 143 0
-129 -103 101 0
-129 -110 108 0
-129 -124 122 0
-129 -138 136 0
-129 -145 143 0
-136 -104 101 0
-136 -111 108 0
-136 -125 122 0
-136 -132 129 0
-136 -146 143 0
-143 -105 101 0
-143 -112 108 0
-143 -126 122 0
-143 -133 129 0
-143 -140 136 0
-102 -106 109 0
-102 -113 116 0
-102 -127 130 0
-102 -134 137 0
-102 -141 144 0
-109 -100 102 0
-109 -114 116 0
-109 -128 130 0
-109 -135 137 0
-109 -142 144 0
-116 -101 102 0
-116 -108 109 0
-116 -129 130 0
-116 -136 137 0
-116 -143 144 0
-130 -103 102 0
-130 -110 109 0
-130 -117 116 0
-130 -138 137 0
-130 -145 144 0
-137 -104 102 0
-137 -111 109 0
-137 -118 116 0
-137 -132 130 0
-137 -146 144 0
-144 -105 102 0
-144 -112 109 0
-144 -119 116 0
-144 -133 130 0
-144 -140 137 0
-103 -106 110 0
-103 -113 117 0
-103 -120 124 0
-103 -134 138 0
-103 -141 145 0
-110 -100 103 0
-110 -114 117 0
-110 -121 124 0
-110 -135 138 0
-110 -142 145 0
-117 -101 103 0
-117 -108 110 0
-117 -122 124 0
-117 -136 138 0
-117 -143 145 0
-124 -102 103 0
-124 -109 110 0
-124 -116 117 0
-124 -137 138 0
-124 -144 145 0
-138 -104 103 0
-138 -111 110 0
-138 -118 117 0
-138 -125 124 0
-138 -146 145 0
-145 -105 103 0
-145 -112 110 0
-145 -119 117 0
-145 -126 124 0
-145 -140 138 0
-104 -106 111 0
-104 -113 118 0
-104 -120 125 0
-104 -127 132 0
-104 -141 146 0
-111 -100 104 0
-111 -114 118 0
-111 -121 125 0
-111 -128 132 0
-111 -142 146 0
-118 -101 104 0
-118 -108 111 0
-118 -122 125 0
-118 -129 132 0
-118 -143 146 0
-125 -102 104 0
-125 -109 111 0
-125 -116 118 0
-125 -130 132 0
-125 -144 146 0
-132 -103 104 0
-132 -110 111 0
-132 -117 118 0
-132 -124 125 0
-132 -145 146 0
-146 -105 104 0
-146 -112 111 0
-146 -119 118 0
-146 -126 125 0
-146 -133 132 0
-105 -106 112 0
-105 -113 119 0
-105 -120 126 0
-105 -127 133 0
-105 -134 140 0
-112 -100 105 0
-112 -114 119 0
-112 -121 126 0
-112 -128 133 0
-112 -135 140 0
-119 -101 105 0
-119 -108 112 0
-119 -122 126 0
-119 -129 133 0
-119 -136 140 0
-126 -102 105 0
-126 -109 112 0
-126 -116 119 0
-126 -130 133 0
-126 -137 140 0
-133 -103 105 0
-133 -110 112 0
-133 -117 119 0
-133 -124 126 0
-133 -138 140 0
-140 -104 105 0
-140 -111 112 0
-140 -118 119 0
-140 -125 126 0
-140 -132 133 0
-155 -163 162 0
-155 -170 169 0
-155 -177 176 0
-155 -184 183 0
-155 -191 190 0
-162 -157 155 0
-162 -171 169 0
-162 -178 176 0
-162 -185 183 0
-162 -192 190 0
-169 -158 155 0
-169 -165 162 0
-169 -179 176 0
-169 -186 183 0
-169 -193 190 0
-176 -159 155 0
-176 -166 162 0
-176 -173 169 0
-176 -187 183 0
-176 -194 190 0
-183 -160 155 0
-183 -167 162 0
-183 -174 169 0
-183 -181 176 0
-183 -195 190 0
-190 -161 155 0
-190 -168 162 0
-190 -175 169 0
-190 -182 176 0
-190 -189 183 0
-149 -162 163 0
-149 -169 170 0
-149 -176 177 0
-149 -183 184 0
-149 -190 191 0
-163 -150 149 0
-163 -171 170 0
-163 -178 177 0
-163 -185 184 0
-163 -192 191 0
-170 -151 149 0
-170 -165 163 0
-170 -179 177 0
-170 -186 184 0
-170 -193 191 0
-177 -152 149 0
-177 -166 163 0
-177 -173 170 0
-177 -187 184 0
-177 -194 191 0
-184 -153 149 0
-184 -167 163 0
-184 -174 170 0
-184 -181 177 0
-184 -195 191 0
-191 -154 149 0
-191 -168 163 0
-191 -175 170 0
-191 -182 177 0
-191 -189 184 0
-150 -155 157 0
-150 -169 171 0
-150 -176 178 0
-150 -183 185 0
-150 -190 192 0
-157 -149 150 0
-157 -170 171 0
-157 -177 178 0
-157 -184 185 0
-157 -191 192 0
-171 -151 150 0
-171 -158 157 0
-171 -179 178 0
-171 -186 185 0
-171 -193 192 0
-178 -152 150 0
-178 -159 157 0
-178 -173 171 0
-178 -187 185 0
-178 -194 192 0
-185 -153 150 0
-185 -160 157 0
-185 -174 171 0
-185 -181 178 0
-185 -195 192 0
-192 -154 150 0
-192 -161 157 0
-192 -175 171 0
-192 -182 178 0
-192 -189 185 0
-151 -155 158 0
-151 -162 165 0
-151 -176 179 0
-151 -183 186 0
-151 -190 193 0
-158 -149 151 0
-158 -163 165 0
-158 -177 179 0
-158 -184 186 0
-158 -191 193 0
-165 -150 151 0
-165 -157 158 0
-165 -178 179 0
-165 -185 186 0
-165 -192 193 0
-179 -152 151 0
-179 -159 158 0
-179 -166 165 0
-179 -187 186 0
-179 -194 193 0
-186 -153 151 0
-186 -160 158 0
-186 -167 165 0
-186 -181 179 0
-186 -195 193 0
-193 -154 151 0
-193 -161 158 0
-193 -168 165 0
-193 -182 179 0
-193 -189 186 0
-152 -155 159 0
-152 -162 166 0
-152 -169 173 0
-152 -183 187 0
-152 -190 194 0
-159 -149 152 0
-159 -163 166 0
-159 -170 173 0
-159 -184 187 0
-159 -191 194 0
-166 -150 152 0
-166 -157 159 0
-166 -171 173 0
-166 -185 187 0
-166 -192 194 0
-173 -151 152 0
-173 -158 159 0
-173 -165 166 0
-173 -186 187 0
-173 -193 194 0
-187 -153 152 0
-187 -160 159 0
-187 -167 166 0
-187 -174 173 0
-187 -195 194 0
-194 -154 152 0
-194 -161 159 0
-194 -168 166 0
-194 -175 173 0
-194 -189 187 0
-153 -155 160 0
-153 -162 167 0
-153 -169 174 0
-153 -176 181 0
-153 -190 195 0
-160 -149 153 0
-160 -163 167 0
-160 -170 174 0
-160 -177 181 0
-160 -191 195 0
-167 -150 153 0
-167 -157 160 0
-167 -171 174 0
-167 -178 181 0
-167 -192 195 0
-174 -151 153 0
-174 -158 160 0
-174 -165 167 0
-174 -179 181 0
-174 -193 195 0
-181 -152 153 0
-181 -159 160 0
-181 -166 167 0
-181 -173 174 0
-181 -194 195 0
-195 -154 153 0
-195 -161 160 0
-195 -168 167 0
-195 -175 174 0
-195 -182 181 0
-154 -155 161 0
-154 -162 168 0
-154 -169 175 0
-154 -176 182 0
-154 -183 189 0
-161 -149 154 0
-161 -163 168 0
-161 -170 175 0
-161 -177 182 0
-161 -184 189 0
-168 -150 154 0
-168 -157 161 0
-168 -171 175 0
-168 -178 182 0
-168 -185 189 0
-175 -151 154 0
-175 -158 161 0
-175 -165 168 0
-175 -179 182 0
-175 -186 189 0
-182 -152 154 0
-182 -159 161 0
-182 -166 168 0
-182 -173 175 0
-182 -187 189 0
-189 -153 154 0
-189 -160 161 0
-189 -167 168 0
-189 -174 175 0
-189 -181 182 0
-204 -212 211 0
-204 -219 218 0
-204 -226 225 0
-204 -233 232 0
-204 -240 239 0
-211 -206 204 0
-211 -220 218 0
-211 -227 225 0
-211 -234 232 0
-211 -241 239 0
-218 -207 204 0
-218 -214 211 0
-218 -228 225 0
-218 -235 232 0
-218 -242 239 0
-225 -208 204 0
-225 -215 211 0
-225 -222 218 0
-225 -236 232 0
-225 -243 239 0
-232 -209 204 0
-232 -216 211 0
-232 -223 218 0
-232 -230 225 0
-232 -244 239 0
-239 -210 204 0
-239 -217 211 0
-239 -224 218 0
-239 -231 225 0
-239 -238 232 0
-198 -211 212 0
-198 -218 219 0
-198 -225 226 0
-198 -232 233 0
-198 -239 240 0
-212 -199 198 0
-212 -220 219 0
-212 -227 226 0
-212 -234 233 0
-212 -241 240 0
-219 -200 198 0
-219 -214 212 0
-219 -228 226 0
-219 -235 233 0
-219 -242 240 0
-226 -201 198 0
-226 -215 212 0
-226 -222 219 0
-226 -236 233 0
-226 -243 240 0
-233 -202 198 0
-233 -216 212 0
-233 -223 219 0
-233 -230 226 0
-233 -244 240 0
-240 -203 198 0
-240 -217 212 0
-240 -224 219 0
-240 -231 226 0
-240 -238 233 0
-199 -204 206 0
-199 -218 220 0
-199 -225 227 0
-199 -232 234 0
-199 -239 241 0
-206 -198 199 0
-206 -219 220 0
-206 -226 227 0
-206 -233 234 0
-206 -240 241 0
-220 -200 199 0
-220 -207 206 0
-220 -228 227 0
-220 -235 234 0
-220 -242 241 0
-227 -201 199 0
-227 -208 206 0
-227 -222 220 0
-227 -236 234 0
-227 -243 241 0
-234 -202 199 0
-234 -209 206 0
-234 -223 220 0
-234 -230 227 0
-234 -244 241 0
-241 -203 199 0
-241 -210 206 0
-241 -224 220 0
-241 -231 227 0
-241 -238 234 0
-200 -204 207 0
-200 -211 214 0
-200 -225 228 0
-200 -232 235 0
-200 -239 242 0
-207 -198 200 0
-207 -212 214 0
-207 -226 228 0
-207 -233 235 0
-207 -240 242 0
-214 -199 200 0
-214 -206 207 0
-214 -227 228 0
-214 -234 235 0
-214 -241 242 0
-228 -201 200 0
-228 -208 207 0
-228 -215 214 0
-228 -236 235 0
-228 -243 242 0
-235 -202 200 0
-235 -209 207 0
-235 -216 214 0
-235 -230 228 0
-235 -244 242 0
-242 -203 200 0
-242 -210 207 0
-242 -217 214 0
-242 -231 228 0
-242 -238 235 0
-201 -204 208 0
-201 -211 215 0
-201 -218 222 0
-201 -232 236 0
-201 -239 243 0
-208 -198 201 0
-208 -212 215 0
-208 -219 222 0
-208 -233 236 0
-208 -240 243 0
-215 -199 201 0
-215 -206 208 0
-215 -220 222 0
-215 -234 236 0
-215 -241 243 0
-222 -200 201 0
-222 -207 208 0
-222 -214 215 0
-222 -235 236 0
-222 -242 243 0
-236 -202 201 0
-236 -209 208 0
-236 -216 215 0
-236 -223 222 0
-236 -244 243 0
-243 -203 201 0
-243 -210 208 0
-243 -217 215 0
-243 -224 222 0
-243 -238 236 0
-202 -204 209 0
-202 -211 216 0
-202 -218 223 0
-202 -225 230 0
-202 -239 244 0
-209 -198 202 0
-209 -212 216 0
-209 -219 223 0
-209 -226 230 0
-209 -240 244 0
-216 -199 202 0
-216 -206 209 0
-216 -220 223 0
-216 -227 230 0
-216 -241 244 0
-223 -200 202 0
-223 -207 209 0
-223 -214 216 0
-223 -228 230 0
-223 -242 244 0
-230 -201 202 0
-230 -208 209 0
-230 -215 216 0
-230 -222 223 0
-230 -243 244 0
-244 -203 202 0
-244 -210 209 0
-244 -217 216 0
-244 -224 223 0
-244 -231 230 0
-203 -204 210 0
-203 -211 217 0
-203 -218 224 0
-203 -225 231 0
-203 -232 238 0
-210 -198 203 0
-210 -212 217 0
-210 -219 224 0
-210 -226 231 0
-210 -233 238 0
-217 -199 203 0
-217 -206 210 0
-217 -220 224 0
-217 -227 231 0
-217 -234 238 0
-224 -200 203 0
-224 -207 210 0
-224 -214 217 0
-224 -228 231 0
-224 -235 238 0
-231 -201 203 0
-231 -208 210 0
-231 -215 217 0
-231 -222 224 0
-231 -236 238 0
-238 -202 203 0
-238 -209 210 0
-238 -216 217 0
-238 -223 224 0
-238 -230 231 0
-253 -261 260 0
-253 -268 267 0
-253 -275 274 0
-253 -282 281 0
-253 -289 288 0
-260 -255 253 0
-260 -269 267 0
-260 -276 274 0
-260 -283 281 0
-260 -290 288 0
-267 -256 253 0
-267 -263 260 0
-267 -277 274 0
-267 -284 281 0
-267 -291 288 0
-274 -257 253 0
-274 -264 260 0
-274 -271 267 0
-274 -285 281 0
-274 -292 288 0
-281 -258 253 0
-281 -265 260 0
-281 -272 267 0
-281 -279 274 0
-281 -293 288 0
-288 -259 253 0
-288 -266 260 0
-288 -273 267 0
-288 -280 274 0
-288 -287 281 0
-247 -260 261 0
-247 -267 268 0
-247 -274 275 0
-247 -281 282 0
-247 -288 289 0
-261 -248 247 0
-261 -269 268 0
-261 -276 275 0
-261 -283 282 0
-261 -290 289 0
-268 -249 247 0
-268 -263 261 0
-268 -277 275 0
-268 -284 282 0
-268 -291 289 0
-275 -250 247 0
-275 -264 261 0
-275 -271 268 0
-275 -285 282 0
-275 -292 289 0
-282 -251 247 0
-282 -265 261 0
-282 -272 268 0
-282 -279 275 0
-282 -293 289 0
-289 -252 247 0
-289 -266 261 0
-289 -273 268 0
-289 -280 275 0
-289 -287 282 0
-248 -253 255 0
-248 -267 269 0
-248 -274 276 0
-248 -281 283 0
-248 -288 290 0
-255 -247 248 0
-255 -268 269 0
-255 -275 276 0
-255 -282 283 0
-255 -289 290 0
-269 -249 248 0
-269 -256 255 0
-269 -277 276 0
-269 -284 283 0
-269 -291 290 0
-276 -250 248 0
-276 -257 255 0
-276 -271 269 0
-276 -285 283 0
-276 -292 290 0
-283 -251 248 0
-283 -258 255 0
-283 -272 269 0
-283 -279 276 0
-283 -293 290 0
-290 -252 248 0
-290 -259 255 0
-290 -273 269 0
-290 -280 276 0
-290 -287 283 0
-249 -253 256 0
-249 -260 263 0
-249 -274 277 0
-249 -281 284 0
-249 -288 291 0
-256 -247 249 0
-256 -261 263 0
-256 -275 277 0
-256 -282 284 0
-256 -289 291 0
-263 -248 249 0
-263 -255 256 0
-263 -276 277 0
-263 -283 284 0
-263 -290 291 0
-277 -250 249 0
-277 -257 256 0
-277 -264 263 0
-277 -285 284 0
-277 -292 291 0
-284 -251 249 0
-284 -258 256 0
-284 -265 263 0
-284 -279 277 0
-284 -293 291 0
-291 -252 249 0
-291 -259 256 0
-291 -266 263 0
-291 -280 277 0
-291 -287 284 0
-250 -253 257 0
-250 -260 264 0
-250 -267 271 0
-250 -281 285 0
-250 -288 292 0
-257 -247 250 0
-257 -261 264 0
-257 -268 271 0
-257 -282 285 0
-257 -289 292 0
-264 -248 250 0
-264 -255 257 0
-264 -269 271 0
-264 -283 285 0
-264 -290 292 0
-271 -249 250 0
-271 -256 257 0
-271 -263 264 0
-271 -284 285 0
-271 -291 292 0
-285 -251 250 0
-285 -258 257 0
-285 -265 264 0
-285 -272 271 0
-285 -293 292 0
-292 -252 250 0
-292 -259 257 0
-292 -266 264 0
-292 -273 271 0
-292 -287 285 0
-251 -253 258 0
-251 -260 265 0
-251 -267 272 0
-251 -274 279 0
-251 -288 293 0
-258 -247 251 0
-258 -261 265 0
-258 -268 272 0
-258 -275 279 0
-258 -289 293 0
-265 -248 251 0
-265 -255 258 0
-265 -269 272 0
-265 -276 279 0
-265 -290 293 0
-272 -249 251 0
-272 -256 258 0
-272 -263 265 0
-272 -277 279 0
-272 -291 293 0
-279 -250 251 0
-279 -257 258 0
-279 -264 265 0
-279 -271 272 0
-279 -292 293 0
-293 -252 251 0
-293 -259 258 0
-293 -266 265 0
-293 -273 272 0
-293 -280 279 0
-252 -253 259 0
-252 -260 266 0
-252 -267 273 0
-252 -274 280 0
-252 -281 287 0
-259 -247 252 0
-259 -261 266 0
-259 -268 273 0
-259 -275 280 0
-259 -282 287 0
-266 -248 252 0
-266 -255 259 0
-266 -269 273 0
-266 -276 280 0
-266 -283 287 0
-273 -249 252 0
-273 -256 259 0
-273 -263 266 0
-273 -277 280 0
-273 -284 287 0
-280 -250 252 0
-280 -257 259 0
-280 -264 266 0
-280 -271 273 0
-280 -285 287 0
-287 -251 252 0
-287 -258 259 0
-287 -265 266 0
-287 -272 273 0
-287 -279 280 0
8 2 0
-8 -2 0
15 3 0
-15 -3 0
22 4 0
-22 -4 0
29 5 0
-29 -5 0
36 6 0
-36 -6 0
43 7 0
-43 -7 0
2 8 0
-2 -8 0
16 10 0
-16 -10 0
23 11 0
-23 -11 0
30 12 0
-30 -12 0
37 13 0
-37 -13 0
44 14 0
-44 -14 0
3 15 0
-3 -15 0
10 16 0
-10 -16 0
24 18 0
-24 -18 0
31 19 0
-31 -19 0
38 20 0
-38 -20 0
45 21 0
-45 -21 0
4 22 0
-4 -22 0
11 23 0
-11 -23 0
18 24 0
-18 -24 0
32 26 0
-32 -26 0
39 27 0
-39 -27 0
46 28 0
-46 -28 0
5 29 0
-5 -29 0
12 30 0
-12 -30 0
19 31 0
-19 -31 0
26 32 0
-26 -32 0
40 34 0
-40 -34 0
47 35 0
-47 -35 0
6 36 0
-6 -36 0
13 37 0
-13 -37 0
20 38 0
-20 -38 0
27 39 0
-27 -39 0
34 40 0
-34 -40 0
48 42 0
-48 -42 0
7 43 0
-7 -43 0
14 44 0
-14 -44 0
21 45 0
-21 -45 0
28 46 0
-28 -46 0
35 47 0
-35 -47 0
42 48 0
-42 -48 0
57 51 0
-57 -51 0
64 52 0
-64 -52 0
71 53 0
-71 -53 0
78 54 0
-78 -54 0
85 55 0
-85 -55 0
92 56 0
-92 -56 0
51 57 0
-51 -57 0
65 59 0
-65 -59 0
72 60 0
-72 -60 0
79 61 0
-79 -61 0
86 62 0
-86 -62 0
93 63 0
-93 -63 0
52 64 0
-52 -64 0
59 65 0
-59 -65 0
73 67 0
-73 -67 0
80 68 0
-80 -68 0
87 69 0
-87 -69 0
94 70 0
-94 -70 0
53 71 0
-53 -71 0
60 72 0
-60 -72 0
67 73 0
-67 -73 0
81 75 0
-81 -75 0
88 76 0
-88 -76 0
95 77 0
-95 -77 0
54 78 0
-54 -78 0
61 79 0
-61 -79 0
68 80 0
-68 -80 0
75 81 0
-75 -81 0
89 83 0
-89 -83 0
96 84 0
-96 -84 0
55 85 0
-55 -85 0
62 86 0
-62 -86 0
69 87 0
-69 -87 0
76 88 0
-76 -88 0
83 89 0
-83 -89 0
97 91 0
-97 -91 0
56 92 0
-56 -92 0
63 93 0
-63 -93 0
70 94 0
-70 -94 0
77 95 0
-77 -95 0
84 96 0
-84 -96 0
91 97 0
-91 -97 0
106 100 0
-106 -100 0
113 101 0
-113 -101 0
120 102 0
-120 -102 0
127 103 0
-127 -103 0
134 104 0
-134 -104 0
141 105 0
-141 -105 0
100 106 0
-100 -106 0
114 108 0
-114 -108 0
121 109 0
-121 -109 0
128 110 0
-128 -110 0
135 111 0
-135 -111 0
142 112 0
-142 -112 0
101 113 0
-101 -113 0
108 114 0
-108 -114 0
122 116 0
-122 -116 0
129 117 0
-129 -117 0
136 118 0
-136 -118 0
143 119 0
-143 -119 0
102 120 0
-102 -120 0
109 121 0
-109 -121 0
116 122 0
-116 -122 0
130 124 0
-130 -124 0
137 125 0
-137 -125 0
144 126 0
-144 -126 0
103 127 0
-103 -127 0
110 128 0
-110 -128 0
117 129 0
-117 -129 0
124 130 0
-124 -130 0
138 132 0
-138 -132 0
145 133 0
-145 -133 0
104 134 0
-104 -134 0
111 135 0
-111 -135 0
118 136 0
-118 -136 0
125 137 0
-125 -137 0
132 138 0
-132 -138 0
146 140 0
-146 -140 0
105 141 0
-105 -141 0
112 142 0
-112 -142 0
119 143 0
-119 -143 0
126 144 0
-126 -144 0
133 145 0
-133 -145 0
140 146 0
-140 -146 0
155 149 0
-155 -149 0
162 150 0
-162 -150 0
169 151 0
-169 -151 0
176 152 0
-176 -152 0
183 153 0
-183 -153 0
190 154 0
-190 -154 0
149 155 0
-149 -155 0
163 157 0
-163 -157 0
170 158 0
-170 -158 0
177 159 0
-177 -159 0
184 160 0
-184 -160 0
191 161 0
-191 -161 0
150 162 0
-150 -162 0
157 163 0
-157 -163 0
171 165 0
-171 -165 0
178 166 0
-178 -166 0
185 167 0
-185 -167 0
192 168 0
-192 -168 0
151 169 0
-151 -169 0
158 170 0
-158 -170 0
165 171 0
-165 -171 0
179 173 0
-179 -173 0
186 174 0
-186 -174 0
193 175 0
-193 -175 0
152 176 0
-152 -176 0
159 177 0
-159 -177 0
166 178 0
-166 -178 0
173 179 0
-173 -179 0
187 181 0
-187 -181 0
194 182 0
-194 -182 0
153 183 0
-153 -183 0
160 184 0
-160 -184 0
167 185 0
-167 -185 0
174 186 0
-174 -186 0
181 187 0
-181 -187 0
195 189 0
-195 -189 0
154 190 0
-154 -190 0
161 191 0
-161 -191 0
168 192 0
-168 -192 0
175 193 0
-175 -193 0
182 194 0
-182 -194 0
189 195 0
-189 -195 0
204 198 0
-204 -198 0
211 199 0
-211 -199 0
218 200 0
-218 -200 0
225 201 0
-225 -201 0
232 202 0
-232 -202 0
239 203 0
-239 -203 0
198 204 0
-198 -204 0
212 206 0
-212 -206 0
219 207 0
-219 -207 0
226 208 0
-226 -208 0
233 209 0
-233 -209 0
240 210 0
-240 -210 0
199 211 0
-199 -211 0
206 212 0
-206 -212 0
220 214 0
-220 -214 0
227 215 0
-227 -215 0
234 216 0
-234 -216 0
241 217 0
-241 -217 0
200 218 0
-200 -218 0
207 219 0
-207 -219 0
214 220 0
-214 -220 0
228 222 0
-228 -222 0
235 223 0
-235 -223 0
242 224 0
-242 -224 0
201 225 0
-201 -225 0
208 226 0
-208 -226 0
215 227 0
-215 -227 0
222 228 0
-222 -228 0
236 230 0
-236 -230 0
243 231 0
-243 -231 0
202 232 0
-202 -232 0
209 233 0
-209 -233 0
216 234 0
-216 -234 0
223 235 0
-223 -235 0
230 236 0
-230 -236 0
244 238 0
-244 -238 0
203 239 0
-203 -239 0
210 240 0
-210 -240 0
217 241 0
-217 -241 0
224 242 0
-224 -242 0
231 243 0
-231 -243 0
238 244 0
-238 -244 0
253 247 0
-253 -247 0
260 248 0
-260 -248 0
267 249 0
-267 -249 0
274 250 0
-274 -250 0
281 251 0
-281 -251 0
288 252 0
-288 -252 0
247 253 0
-247 -253 0
261 255 0
-261 -255 0
268 256 0
-268 -256 0
275 257 0
-275 -257 0
282 258 0
-282 -258 0
289 259 0
-289 -259 0
248 260 0
-248 -260 0
255 261 0
-255 -261 0
269 263 0
-269 -263 0
276 264 0
-276 -264 0
283 265 0
-283 -265 0
290 266 0
-290 -266 0
249 267 0
-249 -267 0
256 268 0
-256 -268 0
263 269 0
-263 -269 0
277 271 0
-277 -271 0
284 272 0
-284 -272 0
291 273 0
-291 -273 0
250 274 0
-250 -274 0
257 275 0
-257 -275 0
264 276 0
-264 -276 0
271 277 0
-271 -277 0
285 279 0
-285 -279 0
292 280 0
-292 -280 0
251 281 0
-251 -281 0
258 282 0
-258 -282 0
265 283 0
-265 -283 0
272 284 0
-272 -284 0
279 285 0
-279 -285 0
293 287 0
-293 -287 0
252 288 0
-252 -288 0
259 289 0
-259 -289 0
266 290 0
-266 -290 0
273 291 0
-273 -291 0
280 292 0
-280 -292 0
287 293 0
-287 -293 0
-687 -700 0
-687 -713 0
-687 -726 0
-687 -739 0
-700 -713 0
-700 -726 0
-700 -739 0
-713 -726 0
-713 -739 0
-726 -739 0
-688 -701 0
-688 -714 0
-688 -727 0
-688 -740 0
-701 -714 0
-701 -727 0
-701 -740 0
-714 -727 0
-714 -740 0
-727 -740 0
-689 -702 0
-689 -715 0
-689 -728 0
-689 -741 0
-702 -715 0
-702 -728 0
-702 -741 0
-715 -728 0
-715 -741 0
-728 -741 0
-690 -703 0
-690 -716 0
-690 -729 0
-690 -742 0
-703 -716 0
-703 -729 0
-703 -742 0
-716 -729 0
-716 -742 0
-729 -742 0
-691 -704 0
-691 -717 0
-691 -730 0
-691 -743 0
-704 -717 0
-704 -730 0
-704 -743 0
-717 -730 0
-717 -743 0
-730 -743 0
-692 -705 0
-692 -718 0
-692 -731 0
-692 -744 0
-705 -718 0
-705 -731 0
-705 -744 0
-718 -731 0
-718 -744 0
-731 -744 0
-693 -706 0
-693 -719 0
-693 -732 0
-693 -745 0
-706 -719 0
-706 -732 0
-706 -745 0
-719 -732 0
-719 -745 0
-732 -745 0
-694 -707 0
-694 -720 0
-694 -733 0
-694 -746 0
-707 -720 0
-707 -733 0
-707 -746 0
-720 -733 0
-720 -746 0
-733 -746 0
-695 -708 0
-695 -721 0
-695 -734 0
-695 -747 0
-708 -721 0
-708 -734 0
-708 -747 0
-721 -734 0
-721 -747 0
-734 -747 0
-696 -709 0
-696 -722 0
-696 -735 0
-696 -748 0
-709 -722 0
-709 -735 0
-709 -748 0
-722 -735 0
-722 -748 0
-735 -748 0
-697 -710 0
-697 -723 0
-697 -736 0
-697 -749 0
-710 -723 0
-710 -736 0
-710 -749 0
-723 -736 0
-723 -749 0
-736 -749 0
-698 -711 0
-698 -724 0
-698 -737 0
-698 -750 0
-711 -724 0
-711 -737 0
-711 -750 0
-724 -737 0
-724 -750 0
-737 -750 0
-699 -712 0
-699 -725 0
-699 -738 0
-699 -751 0
-712 -725 0
-712 -738 0
-712 -751 0
-725 -738 0
-725 -751 0
-738 -751 0
687 700 713 726 739 0
688 701 714 727 740 0
689 702 715 728 741 0
690 703 716 729 742 0
691 704 717 730 743 0
692 705 718 731 744 0
693 706 719 732 745 0
694 707 720 733 746 0
695 708 721 734 747 0
696 709 722 735 748 0
697 710 723 736 749 0
698 711 724 737 750 0
699 712 725 738 751 0
-687 -8 -57 0
-687 8 57 0
-700 -57 -106 0
-700 57 106 0
-713 -106 -155 0
-713 106 155 0
-726 -155 -204 0
-726 155 204 0
-739 -204 -253 0
-739 204 253 0
-688 -15 -64 0
-688 15 64 0
-701 -64 -113 0
-701 64 113 0
-714 -113 -162 0
-714 113 162 0
-727 -162 -211 0
-727 162 211 0
-740 -211 -260 0
-740 211 260 0
-689 -22 -71 0
-689 22 71 0
-702 -71 -120 0
-702 71 120 0
-715 -120 -169 0
-715 120 169 0
-728 -169 -218 0
-728 169 218 0
-741 -218 -267 0
-741 218 267 0
-690 -29 -78 0
-690 29 78 0
-703 -78 -127 0
-703 78 127 0
-716 -127 -176 0
-716 127 176 0
-729 -176 -225 0
-729 176 225 0
-742 -225 -274 0
-742 225 274 0
-691 -36 -85 0
-691 36 85 0
-704 -85 -134 0
-704 85 134 0
-717 -134 -183 0
-717 134 183 0
-730 -183 -232 0
-730 183 232 0
-743 -232 -281 0
-743 232 281 0
-692 -43 -92 0
-692 43 92 0
-705 -92 -141 0
-705 92 141 0
-718 -141 -190 0
-718 141 190 0
-731 -190 -239 0
-731 190 239 0
-744 -239 -288 0
-744 239 288 0
-693 -24 -73 0
-693 24 73 0
-706 -73 -122 0
-706 73 122 0
-719 -122 -171 0
-719 122 171 0
-732 -171 -220 0
-732 171 220 0
-745 -220 -269 0
-745 220 269 0
-694 -31 -80 0
-694 31 80 0
-707 -80 -129 0
-707 80 129 0
-720 -129 -178 0
-720 129 178 0
-733 -178 -227 0
-733 178 227 0
-746 -227 -276 0
-746 227 276 0
-695 -38 -87 0
-695 38 87 0
-708 -87 -136 0
-708 87 136 0
-721 -136 -185 0
-721 136 185 0
-734 -185 -234 0
-734 185 234 0
-747 -234 -283 0
-747 234 283 0
-696 -45 -94 0
-696 45 94 0
-709 -94 -143 0
-709 94 143 0
-722 -143 -192 0
-722 143 192 0
-735 -192 -241 0
-735 192 241 0
-748 -241 -290 0
-748 241 290 0
-697 -32 -81 0
-697 32 81 0
-710 -81 -130 0
-710 81 130 0
-723 -130 -179 0
-723 130 179 0
-736 -179 -228 0
-736 179 228 0
-749 -228 -277 0
-749 228 277 0
-698 -39 -88 0
-698 39 88 0
-711 -88 -137 0
-711 88 137 0
-724 -137 -186 0
-724 137 186 0
-737 -186 -235 0
-737 186 235 0
-750 -235 -284 0
-750 235 284 0
-699 -46 -95 0
-699 46 95 0
-712 -95 -144 0
-712 95 144 0
-725 -144 -193 0
-725 144 193 0
-738 -193 -242 0
-738 193 242 0
-751 -242 -291 0
-751 242 291 0
-8 57 687 0
8 -57 687 0
-15 64 688 0
15 -64 688 0
-22 71 689 0
22 -71 689 0
-29 78 690 0
29 -78 690 0
-36 85 691 0
36 -85 691 0
-43 92 692 0
43 -92 692 0
-16 65 0
16 -65 0
-23 72 0
23 -72 0
-30 79 0
30 -79 0
-37 86 0
37 -86 0
-44 93 0
44 -93 0
-24 73 693 0
24 -73 693 0
-31 80 694 0
31 -80 694 0
-38 87 695 0
38 -87 695 0
-45 94 696 0
45 -94 696 0
-32 81 697 0
32 -81 697 0
-39 88 698 0
39 -88 698 0
-46 95 699 0
46 -95 699 0
-40 89 0
40 -89 0
-47 96 0
47 -96 0
-48 97 0
48 -97 0
-57 106 700 0
57 -106 700 0
-64 113 701 0
64 -113 701 0
-71 120 702 0
71 -120 702 0
-78 127 703 0
78 -127 703 0
-85 134 704 0
85 -134 704 0
-92 141 705 0
92 -141 705 0
-65 114 0
65 -114 0
-72 121 0
72 -121 0
-79 128 0
79 -128 0
-86 135 0
86 -135 0
-93 142 0
93 -142 0
-73 122 706 0
73 -122 706 0
-80 129 707 0
80 -129 707 0
-87 136 708 0
87 -136 708 0
-94 143 709 0
94 -143 709 0
-81 130 710 0
81 -130 710 0
-88 137 711 0
88 -137 711 0
-95 144 712 0
95 -144 712 0
-89 138 0
89 -138 0
-96 145 0
96 -145 0
-97 146 0
97 -146 0
-106 155 713 0
106 -155 713 0
-113 162 714 0
113 -162 714 0
-120 169 715 0
120 -169 715 0
-127 176 716 0
127 -176 716 0
-134 183 717 0
134 -183 717 0
-141 190 718 0
141 -190 718 0
-114 163 0
114 -163 0
-121 170 0
121 -170 0
-128 177 0
128 -177 0
-135 184 0
135 -184 0
-142 191 0
142 -191 0
-122 171 719 0
122 -171 719 0
-129 178 720 0
129 -178 720 0
-136 185 721 0
136 -185 721 0
-143 192 722 0
143 -192 722 0
-130 179 723 0
130 -179 723 0
-137 186 724 0
137 -186 724 0
-144 193 725 0
144 -193 725 0
-138 187 0
138 -187 0
-145 194 0
145 -194 0
-146 195 0
146 -195 0
-155 204 726 0
155 -204 726 0
-162 211 727 0
162 -211 727 0
-169 218 728 0
169 -218 728 0
-176 225 729 0
176 -225 729 0
-183 232 730 0
183 -232 730 0
-190 239 731 0
190 -239 731 0
-163 212 0
163 -212 0
-170 219 0
170 -219 0
-177 226 0
177 -226 0
-184 233 0
184 -233 0
-191 240 0
191 -240 0
-171 220 732 0
171 -220 732 0
-178 227 733 0
178 -227 733 0
-185 234 734 0
185 -234 734 0
-192 241 735 0
192 -241 735 0
-179 228 736 0
179 -228 736 0
-186 235 737 0
186 -235 737 0
-193 242 738 0
193 -242 738 0
-187 236 0
187 -236 0
-194 243 0
194 -243 0
-195 244 0
195 -244 0
-204 253 739 0
204 -253 739 0
-211 260 740 0
211 -260 740 0
-218 267 741 0
218 -267 741 0
-225 274 742 0
225 -274 742 0
-232 281 743 0
232 -281 743 0
-239 288 744 0
239 -288 744 0
-212 261 0
212 -261 0
-219 268 0
219 -268 0
-226 275 0
226 -275 0
-233 282 0
233 -282 0
-240 289 0
240 -289 0
-220 269 745 0
220 -269 745 0
-227 276 746 0
227 -276 746 0
-234 283 747 0
234 -283 747 0
-241 290 748 0
241 -290 748 0
-228 277 749 0
228 -277 749 0
-235 284 750 0
235 -284 750 0
-242 291 751 0
242 -291 751 0
-236 285 0
236 -285 0
-243 292 0
243 -292 0
-244 293 0
244 -293 0
-687 -688 0
-687 -689 0
-687 -690 0
-687 -691 0
-687 -692 0
-688 -687 0
-688 -689 0
-688 -690 0
-688 -691 0
-688 -692 0
-688 -693 0
-688 -694 0
-688 -695 0
-688 -696 0
-689 -687 0
-689 -688 0
-689 -690 0
-689 -691 0
-689 -692 0
-689 -693 0
-689 -697 0
-689 -698 0
-689 -699 0
-690 -687 0
-690 -688 0
-690 -689 0
-690 -691 0
-690 -692 0
-690 -694 0
-690 -697 0
-691 -687 0
-691 -688 0
-691 -689 0
-691 -690 0
-691 -692 0
-691 -695 0
-691 -698 0
-692 -687 0
-692 -688 0
-692 -689 0
-692 -690 0
-692 -691 0
-692 -696 0
-692 -699 0
-693 -688 0
-693 -689 0
-693 -694 0
-693 -695 0
-693 -696 0
-693 -697 0
-693 -698 0
-693 -699 0
-694 -688 0
-694 -690 0
-694 -693 0
-694 -695 0
-694 -696 0
-694 -697 0
-695 -688 0
-695 -691 0
-695 -693 0
-695 -694 0
-695 -696 0
-695 -698 0
-696 -688 0
-696 -692 0
-696 -693 0
-696 -694 0
-696 -695 0
-696 -699 0
-697 -689 0
-697 -690 0
-697 -693 0
-697 -694 0
-697 -698 0
-697 -699 0
-698 -689 0
-698 -691 0
-698 -693 0
-698 -695 0
-698 -697 0
-698 -699 0
-699 -689 0
-699 -692 0
-699 -693 0
-699 -696 0
-699 -697 0
-699 -698 0
-700 -701 0
-700 -702 0
-700 -703 0
-700 -704 0
-700 -705 0
-701 -700 0
-701 -702 0
-701 -703 0
-701 -704 0
-701 -705 0
-701 -706 0
-701 -707 0
-701 -708 0
-701 -709 0
-702 -700 0
-702 -701 0
-702 -703 0
-702 -704 0
-702 -705 0
-702 -706 0
-702 -710 0
-702 -711 0
-702 -712 0
-703 -700 0
-703 -701 0
-703 -702 0
-703 -704 0
-703 -705 0
-703 -707 0
-703 -710 0
-704 -700 0
-704 -701 0
-704 -702 0
-704 -703 0
-704 -705 0
-704 -708 0
-704 -711 0
-705 -700 0
-705 -701 0
-705 -702 0
-705 -703 0
-705 -704 0
-705 -709 0
-705 -712 0
-706 -701 0
-706 -702 0
-706 -707 0
-706 -708 0
-706 -709 0
-706 -710 0
-706 -711 0
-706 -712 0
-707 -701 0
-707 -703 0
-707 -706 0
-707 -708 0
-707 -709 0
-707 -710 0
-708 -701 0
-708 -704 0
-708 -706 0
-708 -707 0
-708 -709 0
-708 -711 0
-709 -701 0
-709 -705 0
-709 -706 0
-709 -707 0
-709 -708 0
-709 -712 0
-710 -702 0
-710 -703 0
-710 -706 0
-710 -707 0
-710 -711 0
-710 -712 0
-711 -702 0
-711 -704 0
-711 -706 0
-711 -708 0
-711 -710 0
-711 -712 0
-712 -702 0
-712 -705 0
-712 -706 0
-712 -709 0
-712 -710 0
-712 -711 0
-713 -714 0
-713 -715 0
-713 -716 0
-713 -717 0
-713 -718 0
-714 -713 0
-714 -715 0
-714 -716 0
-714 -717 0
-714 -718 0
-714 -719 0
-714 -720 0
-714 -721 0
-714 -722 0
-715 -713 0
-715 -714 0
-715 -716 0
-715 -717 0
-715 -718 0
-715 -719 0
-715 -723 0
-715 -724 0
-715 -725 0
-716 -713 0
-716 -714 0
-716 -715 0
-716 -717 0
-716 -718 0
-716 -720 0
-716 -723 0
-717 -713 0
-717 -714 0
-717 -715 0
-717 -716 0
-717 -718 0
-717 -721 0
-717 -724 0
-718 -713 0
-718 -714 0
-718 -715 0
-718 -716 0
-718 -717 0
-718 -722 0
-718 -725 0
-719 -714 0
-719 -715 0
-719 -720 0
-719 -721 0
-719 -722 0
-719 -723 0
-719 -724 0
-719 -725 0
-720 -714 0
-720 -716 0
-720 -719 0
-720 -721 0
-720 -722 0
-720 -723 0
-721 -714 0
-721 -717 0
-721 -719 0
-721 -720 0
-721 -722 0
-721 -724 0
-722 -714 0
-722 -718 0
-722 -719 0
-722 -720 0
-722 -721 0
-722 -725 0
-723 -715 0
-723 -716 0
-723 -719 0
-723 -720 0
-723 -724 0
-723 -725 0
-724 -715 0
-724 -717 0
-724 -719 0
-724 -721 0
-724 -723 0
-724 -725 0
-725 -715 0
-725 -718 0
-725 -719 0
-725 -722 0
-725 -723 0
-725 -724 0
-726 -727 0
-726 -728 0
-726 -729 0
-726 -730 0
-726 -731 0
-727 -726 0
-727 -728 0
-727 -729 0
-727 -730 0
-727 -731 0
-727 -732 0
-727 -733 0
-727 -734 0
-727 -735 0
-728 -726 0
-728 -727 0
-728 -729 0
-728 -730 0
-728 -731 0
-728 -732 0
-728 -736 0
-728 -737 0
-728 -738 0
-729 -726 0
-729 -727 0
-729 -728 0
-729 -730 0
-729 -731 0
-729 -733 0
-729 -736 0
-730 -726 0
-730 -727 0
-730 -728 0
-730 -729 0
-730 -731 0
-730 -734 0
-730 -737 0
-731 -726 0
-731 -727 0
-731 -728 0
-731 -729 0
-731 -730 0
-731 -735 0
-731 -738 0
-732 -727 0
-732 -728 0
-732 -733 0
-732 -734 0
-732 -735 0
-732 -736 0
-732 -737 0
-732 -738 0
-733 -727 0
-733 -729 0
-733 -732 0
-733 -734 0
-733 -735 0
-733 -736 0
-734 -727 0
-734 -730 0
-734 -732 0
-734 -733 0
-734 -735 0
-734 -737 0
-735 -727 0
-735 -731 0
-735 -732 0
-735 -733 0
-735 -734 0
-735 -738 0
-736 -728 0
-736 -729 0
-736 -732 0
-736 -733 0
-736 -737 0
-736 -738 0
-737 -728 0
-737 -730 0
-737 -732 0
-737 -734 0
-737 -736 0
-737 -738 0
-738 -728 0
-738 -731 0
-738 -732 0
-738 -735 0
-738 -736 0
-738 -737 0
-739 -740 0
-739 -741 0
-739 -742 0
-739 -743 0
-739 -744 0
-740 -739 0
-740 -741 0
-740 -742 0
-740 -743 0
-740 -744 0
-740 -745 0
-740 -746 0
-740 -747 0
-740 -748 0
-741 -739 0
-741 -740 0
-741 -742 0
-741 -743 0
-741 -744 0
-741 -745 0
-741 -749 0
-741 -750 0
-741 -751 0
-742 -739 0
-742 -740 0
-742 -741 0
-742 -743 0
-742 -744 0
-742 -746 0
-742 -749 0
-743 -739 0
-743 -740 0
-743 -741 0
-743 -742 0
-743 -744 0
-743 -747 0
-743 -750 0
-744 -739 0
-744 -740 0
-744 -741 0
-744 -742 0
-744 -743 0
-744 -748 0
-744 -751 0
-745 -740 0
-745 -741 0
-745 -746 0
-745 -747 0
-745 -748 0
-745 -749 0
-745 -750 0
-745 -751 0
-746 -740 0
-746 -742 0
-746 -745 0
-746 -747 0
-746 -748 0
-746 -749 0
-747 -740 0
-747 -743 0
-747 -745 0
-747 -746 0
-747 -748 0
-747 -750 0
-748 -740 0
-748 -744 0
-748 -745 0
-748 -746 0
-748 -747 0
-748 -751 0
-749 -741 0
-749 -742 0
-749 -745 0
-749 -746 0
-749 -750 0
-749 -751 0
-750 -741 0
-750 -743 0
-750 -745 0
-750 -747 0
-750 -749 0
-750 -751 0
-751 -741 0
-751 -744 0
-751 -745 0
-751 -748 0
-751 -749 0
-751 -750 0